80 73 75 49 40 70 45 71 71 71 41 82 43 84 65 67 41 71 58 43 
79 71 74 54 41 69 45 74 73 70 42 82 44 84 67 69 44 70 60 40 
80 73 73 50 41 69 45 73 73 70 42 82 44 83 66 69 45 69 60 44 
80 72 72 49 41 74 41 76 73 71 42 81 44 82 65 67 42 74 60 44 
82 75 72 55 41 70 45 75 74 71 41 83 43 83 66 68 44 69 61 46 
80 75 73 50 42 73 41 72 73 70 42 81 44 83 65 69 47 71 58 41 
82 75 76 49 41 71 44 76 74 72 40 83 44 82 65 69 43 71 60 41 
79 74 75 49 40 75 41 77 69 70 41 83 44 82 66 68 42 74 58 45 
80 74 72 54 41 69 42 77 71 72 42 81 45 83 65 69 46 69 60 41 
82 75 75 52 41 73 44 71 72 70 41 83 44 83 67 67 46 68 62 45 
82 76 76 53 42 69 42 76 71 71 41 83 43 82 67 68 43 72 60 42 
83 71 74 52 40 73 43 76 71 71 40 82 44 83 66 69 42 72 59 46 
81 74 73 51 42 72 42 76 68 71 40 83 44 84 65 69 47 73 60 40 
81 77 72 53 42 70 44 72 74 71 41 83 44 84 66 69 47 69 62 39 
82 77 72 51 42 75 45 72 74 72 42 83 44 82 66 68 45 71 60 45 
79 73 76 50 42 70 41 72 69 72 42 82 45 83 65 67 46 67 62 43 
81 75 75 51 41 74 42 72 72 71 41 82 45 84 66 68 47 73 61 45 
83 73 72 50 40 69 44 73 69 71 40 83 44 83 65 67 45 68 62 40 
83 73 73 49 41 69 41 74 74 70 40 82 45 84 66 69 42 68 59 41 
83 72 74 52 42 75 43 71 74 71 42 81 43 82 66 67 45 73 61 44 
83 74 73 50 41 71 43 77 71 70 41 81 44 84 65 69 47 71 60 40 
82 76 75 52 42 75 43 77 69 70 41 82 43 83 66 69 47 68 58 42 
79 71 74 55 42 75 41 73 69 72 40 83 45 84 66 67 43 71 58 47 
80 77 73 54 42 74 45 75 68 70 42 81 43 83 66 67 43 69 61 42 
83 72 72 52 41 70 41 74 71 70 40 82 45 84 67 68 47 72 58 44 
83 75 73 53 41 72 42 75 71 71 40 83 43 84 65 68 44 75 62 46 
79 77 74 52 42 72 43 75 70 71 42 81 44 83 65 69 45 75 59 39 
82 73 72 51 41 70 43 75 72 71 42 81 43 83 66 67 43 68 58 41 
83 75 73 51 42 75 42 74 69 70 42 82 43 82 67 67 42 71 58 47 
81 77 73 55 40 71 45 73 70 70 41 81 43 84 65 69 43 69 60 41 
82 72 75 53 41 74 44 75 74 70 42 83 44 82 66 68 46 71 61 39 
79 77 73 52 40 71 41 76 70 72 40 82 43 82 65 67 45 70 62 40 
80 72 74 55 41 69 43 77 70 71 41 82 45 84 65 69 44 75 60 47 
82 77 76 50 40 71 45 71 74 72 41 83 43 83 67 68 47 68 60 41 
79 76 75 51 41 74 42 72 68 71 42 83 43 84 66 68 44 72 61 47 
83 77 74 55 40 72 44 77 68 71 41 82 44 84 66 69 47 72 58 43 
82 77 72 54 42 75 43 75 70 70 41 83 45 84 66 68 47 72 58 45 
83 76 72 54 40 70 44 76 68 71 42 82 45 84 66 69 46 70 59 44 
82 75 72 53 40 72 41 74 69 71 41 81 44 83 67 67 42 72 58 45 
81 74 72 49 42 71 44 77 72 70 40 81 45 83 67 69 46 74 61 47 
81 76 74 54 41 75 45 77 69 72 41 81 43 82 66 67 45 69 59 45 
82 77 72 55 40 73 43 77 73 71 42 83 43 82 66 68 46 69 60 45 
81 72 72 54 41 74 44 76 68 71 40 81 43 83 67 67 41 70 58 47 
79 77 73 51 40 73 43 74 74 71 41 81 44 82 67 69 45 68 60 42 
82 72 72 49 41 74 44 77 74 70 42 82 43 83 67 69 45 74 58 40 
80 77 76 55 42 73 45 71 71 71 40 81 43 83 67 69 46 73 58 47 
79 75 74 54 42 73 41 74 71 70 40 83 43 83 67 67 42 70 58 40 
79 77 74 49 42 70 41 74 74 70 41 81 43 83 65 67 46 74 59 39 
79 74 76 49 42 69 41 76 72 71 40 82 44 82 65 68 45 73 58 40 
80 77 72 52 41 75 42 71 72 72 40 83 45 83 67 69 43 73 59 41 
80 75 75 54 40 75 44 74 68 72 40 83 43 84 65 69 41 73 61 40 
83 74 75 53 41 69 44 77 73 70 42 81 44 84 65 67 42 68 59 46 
79 77 76 49 41 69 43 73 70 70 42 81 44 83 66 69 42 74 60 39 
83 72 75 53 42 71 42 76 72 71 41 82 45 84 66 69 46 68 61 46 
81 75 72 49 42 72 43 75 69 72 41 83 45 83 66 69 47 75 59 40 
82 72 75 53 40 69 45 75 72 72 40 83 43 82 65 67 45 67 58 47 
79 73 74 49 41 71 45 73 68 70 42 82 44 82 67 67 43 69 59 47 
82 76 72 49 40 71 41 74 74 70 41 82 43 84 65 68 42 69 59 42 
82 71 75 51 42 74 41 74 73 72 42 81 45 82 67 67 44 69 61 40 
81 77 76 49 41 72 44 77 71 71 41 81 44 84 65 68 47 75 60 42 
80 74 76 49 40 74 42 71 69 71 41 83 45 83 67 67 44 75 59 44 
80 75 76 55 42 72 45 72 69 72 42 83 43 83 65 69 46 74 60 45 
79 74 73 54 40 73 42 71 69 71 40 82 43 82 66 68 43 73 58 47 
83 74 73 49 41 71 41 76 69 71 42 81 43 84 66 69 45 70 58 40 
83 73 73 53 41 71 42 72 74 72 42 83 45 82 66 67 42 68 58 39 
82 73 73 55 41 75 44 74 72 70 42 83 43 83 67 69 41 75 59 47 
79 76 73 54 41 71 42 74 72 71 40 81 43 83 67 68 46 72 58 47 
79 75 72 49 41 75 41 76 73 70 41 82 45 83 65 69 42 73 58 46 
83 77 75 51 41 73 45 71 70 70 40 81 44 83 66 69 45 73 61 39 
80 73 75 54 40 71 45 73 71 70 42 81 43 83 66 69 41 72 61 39 
82 71 75 55 40 75 45 75 74 72 40 82 45 84 65 67 42 69 61 47 
83 71 73 53 41 71 43 73 69 71 40 82 44 83 67 69 47 71 62 44 
81 72 73 53 41 73 43 71 71 71 41 81 44 82 66 69 42 72 59 42 
80 77 76 49 42 69 42 73 73 72 42 81 43 82 66 68 46 72 62 47 
79 74 73 54 42 73 41 73 72 72 40 81 45 83 67 69 47 74 58 46 
80 73 73 49 40 72 45 72 74 71 41 81 44 83 65 67 46 71 60 42 
82 76 76 54 40 70 44 71 73 72 40 81 45 82 66 69 45 74 59 46 
79 73 72 53 42 70 44 72 72 71 42 81 44 83 67 69 45 75 62 47 
79 72 73 53 40 73 43 76 71 70 42 83 43 84 66 67 46 73 59 46 
79 75 76 55 42 71 44 74 71 70 40 83 44 82 65 68 41 72 62 41 
81 76 76 52 40 70 45 75 74 70 40 82 43 83 67 68 41 71 59 39 
80 73 72 55 42 74 45 71 74 70 40 81 43 84 65 67 45 75 60 46 
81 71 76 50 42 71 41 75 68 72 42 81 43 83 65 68 47 75 61 43 
83 71 75 51 40 73 43 73 70 70 42 83 43 82 67 68 47 70 60 46 
81 73 73 51 42 69 44 75 69 71 40 83 45 83 67 68 42 74 61 47 
80 71 76 49 40 71 42 72 71 72 40 82 44 82 67 68 46 67 60 47 
82 76 75 49 41 74 44 74 71 72 42 83 43 83 66 68 42 71 58 44 
80 73 74 50 42 73 43 74 69 70 41 81 44 82 67 67 47 72 61 46 
83 76 75 53 40 69 45 74 72 71 40 82 45 83 66 68 46 71 59 39 
81 74 74 50 42 69 41 76 70 70 42 81 44 84 67 69 44 67 59 44 
79 74 72 53 41 71 45 76 73 71 40 82 44 82 66 67 44 71 58 43 
81 74 76 49 41 73 44 77 74 72 41 81 43 82 65 69 47 69 61 47 
79 75 74 55 41 75 45 74 73 70 41 83 43 82 65 68 45 74 58 46 
81 77 73 55 41 70 44 77 70 70 42 81 43 83 66 68 45 72 58 44 
83 72 73 49 42 75 44 74 70 72 42 81 43 84 67 67 46 71 60 42 
79 74 76 49 40 72 42 72 72 72 41 81 44 84 66 69 41 75 62 45 
79 74 76 53 42 73 43 74 74 72 42 81 43 82 67 67 47 70 58 43 
81 71 75 52 40 70 42 72 68 70 42 81 45 84 65 68 46 74 60 42 
82 74 72 54 40 75 45 76 74 71 41 81 43 84 66 67 42 69 62 46 
81 76 74 50 42 74 44 71 68 71 40 81 44 82 67 68 45 72 58 46 